\ Model Cutting Stock Problem with Aspect Ratio Constraints
\ LP format - for model browsing. Use MPS format to capture full model detail.
Minimize
  - x[0] - x[1] - x[2] - x[3] - x[4] - x[5] - x[6] - x[7] - x[8] - x[9]
   - x[10] - x[11] - x[12] - x[13] - x[14] - x[15] - x[16] - x[17] - x[18]
   - x[19] + 10000 Constant
Subject To
 R0: x[0] <= 1
 R1: x[1] <= 1
 R2: x[2] <= 1
 R3: x[3] <= 1
 R4: x[4] <= 1
 R5: x[5] <= 1
 R6: x[6] <= 1
 R7: x[7] <= 1
 R8: x[8] <= 1
 R9: x[9] <= 1
 R10: x[10] <= 1
 R11: x[11] <= 1
 R12: x[12] <= 1
 R13: x[13] <= 1
 R14: x[14] <= 1
 R15: x[15] <= 1
 R16: x[16] <= 1
 R17: x[17] <= 1
 R18: x[18] <= 1
 R19: x[19] <= 1
 R20: x[0] + x[1] + x[2] + x[3] + x[4] + x[5] + x[6] + x[7] + x[8] + x[9]
   + x[10] + x[11] + x[12] + x[13] + x[14] + x[15] + x[16] + x[17] + x[18]
   + x[19] <= 10000
 R21: 0.71 x[0] >= 0
 R22: - 0.05 x[0] <= 0
 R23: 0.6 x[1] >= 0
 R24: 0.32 x[1] <= 0
 R25: 0.68 x[2] >= 0
 R26: - 0.04 x[2] <= 0
 R27: 0.71 x[3] >= 0
 R28: - 0.14 x[3] <= 0
 R29: 0.5 x[4] >= 0
 R30: - 0.03 x[4] <= 0
 R31: 0.82 x[5] >= 0
 R32: - 0.03 x[5] <= 0
 R33: 0.56 x[6] >= 0
 R34: 0.24 x[6] <= 0
 R35: 0.57 x[7] >= 0
 R36: 0.29 x[7] <= 0
 R37: 0.8 x[8] >= 0
 R38: 0.06 x[8] <= 0
 R39: 0.58 x[9] >= 0
 R40: 0.05 x[9] <= 0
 R41: 0.55 x[10] >= 0
 R42: - 0.35 x[10] <= 0
 R43: 0.51 x[11] >= 0
 R44: - 0.05 x[11] <= 0
 R45: 0.71 x[12] >= 0
 R46: - 0.05 x[12] <= 0
 R47: 0.6 x[13] >= 0
 R48: 0.32 x[13] <= 0
 R49: 0.68 x[14] >= 0
 R50: - 0.04 x[14] <= 0
 R51: 0.71 x[15] >= 0
 R52: - 0.14 x[15] <= 0
 R53: 0.5 x[16] >= 0
 R54: - 0.03 x[16] <= 0
 R55: 0.82 x[17] >= 0
 R56: - 0.03 x[17] <= 0
 R57: 0.56 x[18] >= 0
 R58: 0.24 x[18] <= 0
 R59: 0.57 x[19] >= 0
 R60: 0.29 x[19] <= 0
Bounds
 Constant = 1
End
